p tw 130 300
0 1
0 2
0 6
0 7
0 28
0 29
0 33
0 94
0 71
0 78
0 107
0 114
0 83
0 115
0 93
0 121
0 127
0 128
1 2
2 36
2 39
3 4
3 5
4 5
4 19
4 38
5 11
5 12
5 16
5 17
5 49
5 50
5 65
5 66
5 34
5 76
5 51
5 83
5 84
5 87
5 95
5 96
5 56
5 104
5 58
5 105
5 79
5 110
5 45
5 118
5 43
5 74
5 119
5 129
5 122
5 128
6 7
6 18
6 19
7 53
7 54
8 9
8 10
8 36
8 74
9 10
9 53
9 117
10 20
10 21
10 71
10 72
10 70
10 77
10 65
10 93
10 92
10 97
10 28
10 90
10 41
10 67
11 12
11 53
11 109
12 36
12 40
13 14
13 15
13 23
13 80
13 18
13 84
13 88
13 89
13 112
13 113
13 39
13 49
13 31
13 64
13 103
13 126
14 15
14 25
14 109
16 17
17 22
17 75
18 19
18 84
19 67
19 68
19 69
19 70
19 61
19 98
19 107
19 108
19 35
19 116
19 24
19 105
19 38
19 48
19 75
20 21
20 36
20 48
22 23
22 24
22 41
22 42
22 43
22 44
22 57
22 64
22 55
22 73
22 75
22 81
22 82
22 90
22 91
22 62
22 92
22 96
22 100
22 26
22 112
22 66
22 102
22 88
22 118
22 69
22 120
22 98
22 122
22 72
22 125
23 24
23 80
24 105
25 26
25 27
25 37
25 38
25 56
25 57
25 50
25 99
25 91
25 106
25 89
25 111
25 42
25 119
25 109
26 27
26 112
27 35
27 36
28 29
28 90
29 32
29 47
30 31
30 32
31 32
31 64
32 33
32 34
32 47
32 51
32 52
32 60
32 61
32 62
32 63
32 78
32 79
32 37
32 86
33 34
33 94
34 76
35 36
35 116
36 39
36 40
36 45
36 46
36 48
36 74
36 85
36 86
36 101
36 102
36 77
36 103
36 63
36 123
36 100
36 114
37 38
37 86
39 49
41 42
41 67
42 119
43 44
43 74
45 46
45 118
48 75
49 50
50 99
51 52
51 83
52 53
52 55
53 54
53 55
53 58
53 59
53 76
53 82
53 109
53 117
53 123
53 124
55 73
56 57
56 104
57 64
58 59
58 105
60 61
61 98
62 63
62 92
63 123
65 66
65 93
66 102
67 68
69 70
69 120
70 77
71 72
71 78
72 125
76 82
77 103
78 79
79 110
81 82
83 115
84 87
85 86
88 89
88 118
89 111
90 91
91 106
92 97
93 121
95 96
96 100
98 122
100 114
101 102
103 126
107 108
107 114
112 113
119 129
122 128
123 124
127 128
